0
3
4
5
6
10
8
7
8
6
6
7
7
7
8
9
9
10
10
11
12
13
13
13
13
13
13
13
13
13
13
13
13
12
12
12
13
13
13
13
14
13
13
13
13
13
13
13
13
13
13
13
13
13
13
13
13
13
13
13
13
13
13
13
13
13
13
13
13
13
13
13
13
13
13
13
13
13
13
13
13
13
13
13
13
13
13
13
13
13
13
13
13
13
13
13
13
13
13
13
13
